\ Model Model_copy
\ LP format - for model browsing. Use MPS format to capture full model detail.
Minimize
 
Subject To
 ram_limit[8,87]: 0.3041969820142753 v[8,0] + 0.6057394952846482 v[8,1]
   <= 0.0495738045853074
 entry_in: q[33,2] = 1
 last_vnf_out[8]: - v[8,1] + q[33,2] + q[34,2] + q[35,2] + q[36,2]
   + q[37,2] = 0
Bounds
Binaries
 v[8,0] v[8,1] q[33,2] q[34,2] q[35,2] q[36,2] q[37,2]
End
